CPXPARAM_TimeLimit                               7200
CPXPARAM_Read_DataCheck                          1
CPXPARAM_RandomSeed                              201703173
Parallel mode: deterministic, using up to 8 threads for concurrent optimization.
Tried aggregator 1 time.
No LP presolve or aggregator reductions.
Presolve time = 0.00 sec. (2.37 ticks)

Iteration log . . .
Iteration:     1   Dual objective     =           900.000000
Perturbation started.
Iteration:   101   Dual objective     =           900.000000
Iteration:   222   Dual objective     =           900.019532
Iteration:   430   Dual objective     =           900.026038
Iteration:   653   Dual objective     =           900.026042
Iteration:   876   Dual objective     =           900.026045
Iteration:  1100   Dual objective     =           900.026048
Iteration:  1324   Dual objective     =           900.026050
Iteration:  1554   Dual objective     =           900.026051
Iteration:  1788   Dual objective     =           900.026052
Removing perturbation.

Dual simplex solved model.

